Route #1: 91 21 25 26 27 28 30 31 58 57 105 100 98 36 99 101 104 56 103 102 53 55 54 52 51 50 62 61 60 59
Route #2: 49 35 37 95 40 43 44 41 3 42 4 5 9 8 6 7 11 12 10 2 45 39 38 96 97 93 94
Route #3: 73 74 78 133 33 80 68 69 70 67 79 63 64 77 76 134 32 34 48 1 75 72
Route #4: 47 22 24 23 29 92 90 89 16 13 15 14 88 87 86 84 85 83 20 82 46 118 17 71
Route #5: 66 81 112 126 127 128 129 113 116 131 117 119 130 65 19 18
Route #6: 132 125 123 122 121 124 110 111
Route #7: 120 109 108 107 106 114 115
Cost 1247
